&CONTROL
  calculation   = 'scf'
  prefix        = 1L_bzdz1.75
!  pseudo_dir    = $PSEUDOS
  outdir        = 1L_bzdz1.75
  restart_mode  = 'from_scratch'
  etot_conv_thr = 1.0d-06
  forc_conv_thr = 5.0d-04
  nstep         = 120
/
!****************************************
&SYSTEM
  ibrav       = 0
  nat         = 49
  ntyp        = 4
  ecutwfc     = 40.
  ecutrho     = 200.
  input_dft   = 'pbe'
  vdw_corr    = 'dft-d'
!  nspin       = 2
!  tot_magnetization = 1
  tot_charge = 1
  occupations = 'smearing'
  smearing    = 'fd'
  degauss     = 0.001
/
!****************************************
&ELECTRONS
  diagonalization  = 'david'
  conv_thr         = 1.0d-07
  mixing_mode      = 'local-TF'
  mixing_beta      = 0.60
  electron_maxstep = 64
/
!****************************************
ATOMIC_SPECIES
P 1.00 p_pbe_v1.5.uspp.F.UPF
C 1.00 c_pbe_v1.2.uspp.F.UPF
H 1.00 h_pbe_v1.4.uspp.F.UPF
N 1.00 n_pbe_v1.2.uspp.F.UPF
!****************************************
K_POINTS automatic
2 2 1 1 1 1 
!****************************************
CELL_PARAMETERS (angstrom)
9.96606      0.0      0.0
0.0      13.69977      0.0
0.0      0.0      22.47
!****************************************
ATOMIC_POSITIONS (angstrom)
P      0.0      2.6758847422999996      10.168349099999999
P      1.66101      4.1740002576999995      10.168349099999999
P      0.0      1.8907052576999999      12.304571999999999
P      1.66101      0.3925897423      12.304571999999999
P      0.0      7.242474742299999      10.168349099999999
P      1.66101      8.7405902577      10.168349099999999
P      0.0      6.457295257699999      12.304571999999999
P      1.66101      4.9591797423      12.304571999999999
P      0.0      11.809064742299999      10.168349099999999
P      1.66101      13.307180257699999      10.168349099999999
P      0.0      11.0238852577      12.304571999999999
P      1.66101      9.5257697423      12.304571999999999
P      3.32202      2.6758847422999996      10.168349099999999
P      4.98303      4.1740002576999995      10.168349099999999
P      3.32202      1.8907052576999999      12.304571999999999
P      4.98303      0.3925897423      12.304571999999999
P      3.32202      7.242474742299999      10.168349099999999
P      4.98303      8.7405902577      10.168349099999999
P      3.32202      6.457295257699999      12.304571999999999
P      4.98303      4.9591797423      12.304571999999999
P      3.32202      11.809064742299999      10.168349099999999
P      4.98303      13.307180257699999      10.168349099999999
P      3.32202      11.0238852577      12.304571999999999
P      4.98303      9.5257697423      12.304571999999999
P      6.64404      2.6758847422999996      10.168349099999999
P      8.305050000000001      4.1740002576999995      10.168349099999999
P      6.64404      1.8907052576999999      12.304571999999999
P      8.305050000000001      0.3925897423      12.304571999999999
P      6.64404      7.242474742299999      10.168349099999999
P      8.305050000000001      8.7405902577      10.168349099999999
P      6.64404      6.457295257699999      12.304571999999999
P      8.305050000000001      4.9591797423      12.304571999999999
P      6.64404      11.809064742299999      10.168349099999999
P      8.305050000000001      13.307180257699999      10.168349099999999
P      6.64404      11.0238852577      12.304571999999999
P      8.305050000000001      9.5257697423      12.304571999999999
C      3.7595300000000007      4.9592797423      18.609772
C      3.7698300000000007      4.9593797422999994      17.214972
C      4.962330000000001      4.9592797423      19.316171999999998
C      4.98303      4.9591797423      16.526571999999998
C      6.17543      4.9592797423      18.627671999999997
C      6.18573      4.9592797423      17.232971999999997
H      2.8149300000000004      4.9592797423      19.145771999999997
H      2.8333300000000006      4.9593797422999994      16.664972
H      4.954230000000001      4.9591797423      20.402271999999996
H      7.112030000000001      4.9593797422999994      19.177671999999998
H      7.130330000000001      4.9592797423      16.696872
N      4.98303      4.9591797423      15.147571999999998
N      4.98303      4.9591797423      14.054571999999999
End final coordinates