&CONTROL
  calculation   = 'scf'
  prefix        = twosubs
!  pseudo_dir    = $PSEUDOS
  outdir        = salida
  restart_mode  = 'from_scratch'
  etot_conv_thr = 1.0d-06
  forc_conv_thr = 5.0d-04
  nstep         = 120
/
!****************************************
&SYSTEM
  ibrav       = 0
  nat         = 70
  ntyp        = 4
  ecutwfc     = 40.
  ecutrho     = 200.
  input_dft   = 'pbe'
  vdw_corr    = 'dft-d'
!  nspin       = 2
!  tot_magnetization = 1
  tot_charge = 1
  occupations = 'smearing'
  smearing    = 'fd'
  degauss     = 0.001
/
!****************************************
&ELECTRONS
  diagonalization  = 'david'
  conv_thr         = 1.0d-07
  mixing_mode      = 'local-TF'
  mixing_beta      = 0.60
  electron_maxstep = 64
/
!****************************************
ATOMIC_SPECIES
P 1.00 p_pbe_v1.5.uspp.F.UPF
C 1.00 c_pbe_v1.2.uspp.F.UPF
H 1.00 h_pbe_v1.4.uspp.F.UPF
N 1.00 n_pbe_v1.2.uspp.F.UPF
!****************************************
K_POINTS automatic
2 2 1 1 1 1 
!****************************************
CELL_PARAMETERS (angstrom)
13.28808      0.0      0.0
0.0      13.69977      0.0
0.0      0.0      22.47
!****************************************
ATOMIC_POSITIONS (angstrom)
P      0.0      2.6758847422999996      10.168349099999999      0      0      0
P      1.66101      4.1740002576999995      10.168349099999999      0      0      0
P      0.0      1.8907052576999999      12.304571999999999      0      0      0
P      1.66101      0.3925897423      12.304571999999999      0      0      0
P      0.0      7.242474742299999      10.168349099999999      0      0      0
P      1.66101      8.7405902577      10.168349099999999      0      0      0
P      0.0      6.457295257699999      12.304571999999999      0      0      0
P      1.66101      4.9591797423      12.304571999999999      0      0      0
P      0.0      11.809064742299999      10.168349099999999      0      0      0
P      1.66101      13.307180257699999      10.168349099999999      0      0      0
P      0.0      11.0238852577      12.304571999999999      0      0      0
P      1.66101      9.5257697423      12.304571999999999      0      0      0
P      3.32202      2.6758847422999996      10.168349099999999      0      0      0
P      4.98303      4.1740002576999995      10.168349099999999      0      0      0
P      3.32202      1.8907052576999999      12.304571999999999      0      0      0
P      4.98303      0.3925897423      12.304571999999999      0      0      0
P      3.32202      7.242474742299999      10.168349099999999      0      0      0
P      4.98303      8.7405902577      10.168349099999999      0      0      0
P      3.32202      6.457295257699999      12.304571999999999      0      0      0
P      4.98303      4.9591797423      12.304571999999999      0      0      0
P      3.32202      11.809064742299999      10.168349099999999      0      0      0
P      4.98303      13.307180257699999      10.168349099999999      0      0      0
P      3.32202      11.0238852577      12.304571999999999      0      0      0
P      4.98303      9.5257697423      12.304571999999999      0      0      0
P      6.64404      2.6758847422999996      10.168349099999999      0      0      0
P      8.305050000000001      4.1740002576999995      10.168349099999999      0      0      0
P      6.64404      1.8907052576999999      12.304571999999999      0      0      0
P      8.305050000000001      0.3925897423      12.304571999999999      0      0      0
P      6.64404      7.242474742299999      10.168349099999999      0      0      0
P      8.305050000000001      8.7405902577      10.168349099999999      0      0      0
P      6.64404      6.457295257699999      12.304571999999999      0      0      0
P      8.305050000000001      4.9591797423      12.304571999999999      0      0      0
P      6.64404      11.809064742299999      10.168349099999999      0      0      0
P      8.305050000000001      13.307180257699999      10.168349099999999      0      0      0
P      6.64404      11.0238852577      12.304571999999999      0      0      0
P      8.305050000000001      9.5257697423      12.304571999999999      0      0      0
P      9.96606      2.6758847422999996      10.168349099999999      0      0      0
P      11.62707      4.1740002576999995      10.168349099999999      0      0      0
P      9.96606      1.8907052576999999      12.304571999999999      0      0      0
P      11.62707      0.3925897423      12.304571999999999      0      0      0
P      9.96606      7.242474742299999      10.168349099999999      0      0      0
P      11.62707      8.7405902577      10.168349099999999      0      0      0
P      9.96606      6.457295257699999      12.304571999999999      0      0      0
P      11.62707      4.9591797423      12.304571999999999      0      0      0
P      9.96606      11.809064742299999      10.168349099999999      0      0      0
P      11.62707      13.307180257699999      10.168349099999999      0      0      0
P      9.96606      11.0238852577      12.304571999999999      0      0      0
P      11.62707      9.5257697423      12.304571999999999      0      0      0
C      1.6611099999999999      10.749269742300001      16.227771999999998      0      0      0
C      1.66121      10.7389697423      14.832971999999998      0      0      0
C      1.66111      9.546469742300001      16.934171999999997      0      0      0
C      1.66101      9.5257697423      14.144571999999998      0      0      0
C      1.66111      8.3333697423      16.245672      0      0      0
C      1.6611100000000003      8.3230697423      14.850971999999999      0      0      0
H      1.6611099999999999      11.6938697423      16.763772      0      0      0
H      1.66121      11.6754697423      14.282972      0      0      0
H      1.6610099999999999      9.5545697423      18.020272      0      0      0
H      1.66121      7.3967697423      16.795672      0      0      0
H      1.6611100000000003      7.3784697423      14.314871999999998      0      0      0
C      8.305150000000001      6.1826797422999995      16.227771999999998      0      0      0
C      8.305250000000001      6.1723797422999995      14.832971999999998      0      0      0
C      8.305150000000001      4.9798797423      16.934171999999997      0      0      0
C      8.305050000000001      4.9591797423      14.144571999999998      0      0      0
C      8.305150000000001      3.7667797423      16.245672      0      0      0
C      8.305150000000001      3.7564797423      14.850971999999999      0      0      0
H      8.305150000000001      7.1272797423      16.763772      0      0      0
H      8.305250000000001      7.108879742299999      14.282972      0      0      0
H      8.305050000000001      4.987979742299999      18.020272      0      0      0
H      8.305250000000001      2.8301797422999995      16.795672      0      0      0
H      8.305150000000001      2.8118797422999995      14.314871999999998      0      0      0
End final coordinates