{# templates/scf.in  #}

&CONTROL
  calculation   = 'scf'
  prefix        = {{ prefijo }}
  pseudo_dir    = '/home/rpd/Documents/QE/Pseudos/GBRV/PBE'
  outdir        = './'
  restart_mode  = 'from_scratch'
  etot_conv_thr = 1.0d-06
  forc_conv_thr = 5.0d-04
  nstep         = 120
/
!****************************************
&SYSTEM
  ibrav       = 0
  nat         = {{ nat }}
  ntyp        = 3
  ecutwfc     = 40.
  ecutrho     = 200.
  input_dft   = 'pbe'
  vdw_corr    = 'dft-d'
  nspin       = 2
  tot_magnetization = 1
  occupations = 'smearing'
  smearing    = 'fd'
  degauss     = 0.001
/
!****************************************
&ELECTRONS
  diagonalization  = 'david'
  conv_thr         = 1.0d-07
  mixing_mode      = 'local-TF'
  mixing_beta      = 0.60
  electron_maxstep = 64
/

!****************************************
ATOMIC_SPECIES
P 1.00 p_pbe_v1.5.uspp.F.UPF
C 1.00 c_pbe_v1.2.uspp.F.UPF
H 1.00 h_pbe_v1.4.uspp.F.UPF
!****************************************
K_POINTS automatic
2 2 1 1 1 1 
!****************************************
CELL_PARAMETERS (angstrom)
  23.157476266   0.000000000   0.000000000
   0.000000000  27.352603207   0.000000000
   0.000000000   0.000000000  20.000000000
!****************************************
ATOMIC_POSITIONS (angstrom)
{% for coordenada in coordenadas %}
  {{coordenada}}
{% endfor %}
C            11.58682928         15.09700161         10.1711
C            11.58692928         15.08670161          8.77632
C            11.58682928         13.89420161         10.8775
C            11.58672928         13.87350161          8.08792
C            11.58682928         12.68110161         10.189
C            11.58682928         12.67080161          8.79432
H            11.58682928         16.04160161         10.7071
H            11.58692928         16.02320161          8.22632
H            11.58672928         13.90230161         11.9636
H            11.58692928         11.74450161         10.739
H            11.58682928         11.72620161          8.25822
P             0.0000000000        1.8825113839        6.2989228051
P             0.0000000000        2.6763052428        4.1853768485
P             1.6540516395        0.3969676906        6.2989223190
P             1.6540493671        4.1618501581        4.1853767490
P             0.0000000000        6.4412502503        6.2989165290
P             0.0000000000        7.2350407768        4.1853695387
P             1.6540508641        4.9557065108        6.2989124706
P             1.6540503599        8.7205849537        4.1853665756
P             0.0000000000       10.9999822648        6.2989153358
P             0.0000000000       11.7937879908        4.1853736763
P             1.6540517573        9.5144393784        6.2989033095
P             1.6540494080       13.2793343693        4.1853725833
P             0.0000000000       15.5587393023        6.2989316311
P             0.0000000000       16.3525663897        4.1853971547
P             1.6540515595       14.0731944170        6.2989085991
P             1.6540495041       17.8381126674        4.1853915908
P             0.0000000000       20.1175418275        6.2989296800
P             0.0000000000       20.9113707307        4.1853956230
P             1.6540526904       18.6319973536        6.2989184769
P             1.6540488848       22.3969182314        4.1853957819
P             0.0000000000       24.6763477269        6.2989235054
P             0.0000000000       25.4701607724        4.1853840449
P             1.6540521402       23.1908033525        6.2989221282
P             1.6540492104       26.9557067847        4.1853886194
P             3.3081945518        1.8824678752        6.2989107876
P             3.3081952027        2.6763516289        4.1853770655
P             4.9623081608        0.3969479178        6.2989283975
P             4.9623115634        4.1618684489        4.1853781958
P             3.3081948564        6.4412045011        6.2989040110
P             3.3081955823        7.2350851333        4.1853693096
P             4.9623076310        4.9556843495        6.2989192816
P             4.9623119959        8.7206023066        4.1853687235
P             3.3081949191       10.9999386832        6.2989038431
P             3.3081962092       11.7938354474        4.1853747815
P             4.9623076874        9.5144182838        6.2989101633
P             4.9623121310       13.2793541317        4.1853758171
P             3.3081941031       15.5586961749        6.2989171536
P             3.3081959324       16.3526131330        4.1853948909
P             4.9623091847       14.0731769007        6.2989159184
P             4.9623105067       17.8381339718        4.1853926316
P             3.3081948362       20.1175006260        6.2989163038
P             3.3081969413       20.9114203803        4.1853947771
P             4.9623099487       18.6319806575        6.2989240201
P             4.9623108875       22.3969421423        4.1853976120
P             3.3081942823       24.6763056805        6.2989088503
P             3.3081959186       25.4702082209        4.1853814427
P             4.9623107222       23.1907879892        6.2989289018
P             4.9623100306       26.9557289839        4.1853885911
P             6.6163709977        1.8825011461        6.2989234027
P             6.6163687723        2.6763114495        4.1853797748
P             8.2704873800        0.3969831843        6.2989187232
P             8.2704860452        4.1618283715        4.1853758873
P             6.6163719341        6.4412349749        6.2989178750
P             6.6163692134        7.2350448448        4.1853743238
P             8.2704862033        4.9557153098        6.2989077348
P             8.2704871156        8.7205611934        4.1853694616
P             6.6163715623       10.9999696274        6.2989165888
P             6.6163698441       11.7937962235        4.1853788434
P             8.2704866077        9.5144504919        6.2989006375
P             8.2704868037       13.2793146512        4.1853769851
P             6.6163712755       15.5587321885        6.2989283052
P             6.6163700167       16.3525777460        4.1853967820
P             8.2704870531       14.0732123586        6.2989063518
P             8.2704866486       17.8380973918        4.1853920721
P             6.6163716450       20.1175370422        6.2989240863
P             6.6163710767       20.9113865984        4.1853938270
P             8.2704885343       18.6320183067        6.2989128494
P             8.2704861544       22.3969081250        4.1853976078
P             6.6163713186       24.6763447993        6.2989181353
P             6.6163702608       25.4701742133        4.1853808586
P             8.2704884083       23.1908269864        6.2989189931
P             8.2704857556       26.9556945097        4.1853877325
P             9.9246327646        1.8824827888        6.2989172162
P             9.9246350252        2.6763313759        4.1853783089
P            11.5787131948        0.3969408394        6.2989324192
P            11.5787131948        4.1618744814        4.1853758899
P             9.9246331597        6.4412121872        6.2989130351
P             9.9246351472        7.2350629851        4.1853753808
P            11.5787131948        4.9556706163        6.2989201203
P            11.5787131948        8.7206062194        4.1853707457
P             9.9246331176       10.9999483178        6.2989121165
P             9.9246353952       11.7938160924        4.1853802852
P            11.5787131948        9.5144062844        6.2989138338
P            11.5787131948       13.2793605542        4.1853787612
P             9.9246328841       15.5587126068        6.2989221753
P             9.9246358183       16.3525989139        4.1853963658
P            11.5787131948       14.0731692692        6.2989197996
P            11.5787131948       17.8381444586        4.1853943695
P             9.9246330584       20.1175204347        6.2989174447
P             9.9246364855       20.9114111523        4.1853930704
P            11.5787131948       18.6319766741        6.2989269653
P            11.5787131948       22.3969573471        4.1854002389
P             9.9246324908       24.6763288575        6.2989110608
P             9.9246357345       25.4701976023        4.1853789003
P            11.5787131948       23.1907864992        6.2989335612
P            11.5787131948       26.9557424852        4.1853891745
P            13.2327936251        1.8824827888        6.2989172162
P            13.2327913644        2.6763313759        4.1853783089
P            14.8869390097        0.3969831843        6.2989187232
P            14.8869403444        4.1618283715        4.1853758873
P            13.2327932299        6.4412121872        6.2989130351
P            13.2327912425        7.2350629851        4.1853753808
P            14.8869401863        4.9557153098        6.2989077348
P            14.8869392740        8.7205611934        4.1853694616
P            13.2327932721       10.9999483178        6.2989121165
P            13.2327909945       11.7938160924        4.1853802852
P            14.8869397819        9.5144504919        6.2989006375
P            14.8869395860       13.2793146512        4.1853769851
P            13.2327935055       15.5587126068        6.2989221753
P            13.2327905712       16.3525989139        4.1853963658
P            14.8869393365       14.0732123586        6.2989063518
P            14.8869397410       17.8380973918        4.1853920721
P            13.2327933312       20.1175204347        6.2989174447
P            13.2327899042       20.9114111523        4.1853930704
P            14.8869378553       18.6320183067        6.2989128494
P            14.8869402352       22.3969081250        4.1853976078
P            13.2327938989       24.6763288575        6.2989110608
P            13.2327906551       25.4701976023        4.1853789003
P            14.8869379813       23.1908269864        6.2989189931
P            14.8869406340       26.9556945097        4.1853877325
P            16.5410553920        1.8825011461        6.2989234027
P            16.5410576173        2.6763114495        4.1853797748
P            18.1951182288        0.3969479178        6.2989283975
P            18.1951148262        4.1618684489        4.1853781958
P            16.5410544555        6.4412349749        6.2989178750
P            16.5410571763        7.2350448448        4.1853743238
P            18.1951187587        4.9556843495        6.2989192816
P            18.1951143939        8.7206023066        4.1853687235
P            16.5410548274       10.9999696274        6.2989165888
P            16.5410565455       11.7937962235        4.1853788434
P            18.1951187022        9.5144182838        6.2989101633
P            18.1951142587       13.2793541317        4.1853758171
P            16.5410551141       15.5587321885        6.2989283052
P            16.5410563731       16.3525777460        4.1853967820
P            18.1951172051       14.0731769007        6.2989159184
P            18.1951158830       17.8381339718        4.1853926316
P            16.5410547446       20.1175370422        6.2989240863
P            16.5410553131       20.9113865984        4.1853938270
P            18.1951164409       18.6319806575        6.2989240201
P            18.1951155021       22.3969421423        4.1853976120
P            16.5410550710       24.6763447993        6.2989181353
P            16.5410561290       25.4701742133        4.1853808586
P            18.1951156675       23.1907879892        6.2989289018
P            18.1951163590       26.9557289839        4.1853885911
P            19.8492318378        1.8824678752        6.2989107876
P            19.8492311869        2.6763516289        4.1853770655
P            21.5033747502        0.3969676906        6.2989223190
P            21.5033770225        4.1618501581        4.1853767490
P            19.8492315332        6.4412045011        6.2989040110
P            19.8492308072        7.2350851333        4.1853693096
P            21.5033755256        4.9557065108        6.2989124706
P            21.5033760297        8.7205849537        4.1853665756
P            19.8492314706       10.9999386832        6.2989038431
P            19.8492301804       11.7938354474        4.1853747815
P            21.5033746323        9.5144393784        6.2989033095
P            21.5033769815       13.2793343693        4.1853725833
P            19.8492322864       15.5586961749        6.2989171536
P            19.8492304571       16.3526131330        4.1853948909
P            21.5033748301       14.0731944170        6.2989085991
P            21.5033768855       17.8381126674        4.1853915908
P            19.8492315534       20.1175006260        6.2989163038
P            19.8492294484       20.9114203803        4.1853947771
P            21.5033736991       18.6319973536        6.2989184769
P            21.5033775050       22.3969182314        4.1853957819
P            19.8492321073       24.6763056805        6.2989088503
P            19.8492304710       25.4702082209        4.1853814427
P            21.5033742495       23.1908033525        6.2989221282
P            21.5033771792       26.9557067847        4.1853886194
End final coordinates
